;; ===================== Declarations for the criterion (REQ 0) =====================
;; No variables are needed, as the requirement states that no eligibility criteria must be satisfied.
;; "To be included, the patient must not be required to satisfy any eligibility criteria."

;; ===================== Constraint Assertions (REQ 0) =====================
;; The constraint is always satisfied, as there are no eligibility criteria to meet.
(assert
  (! true
     :named REQ0_COMPONENT0_NOT_REQUIREMNET_OR_ALWAYS_SATISFIABLE_WITH_ACTION)) ;; "To be included, the patient must not be required to satisfy any eligibility criteria."
